% Auto-generated by scripts/generate_dzn.py
% problem_type   = regex
% instance       = regex_65
% source_json    = instances_json/1_medium_blowup/regex_65.json
% blowup         = 4.526315789473684
% representation = NFA

mode = 1;

var_count = 20;
n_constraints = 2;
Q = 10;
S = 3;
q0 = [1, 1];
F = [{10}, {9}];
weights = [7, 5, 4, 3, 3, 1, 3, 5, 7, 3, 10, 8, 8, 10, 1, 1, 5, 6, 10, 9];
d_dfa = array3d(1..2, 1..10, 1..3, [
  % k = 1
    0, 0, 0,
    0, 0, 0,
    0, 0, 0,
    0, 0, 0,
    0, 0, 0,
    0, 0, 0,
    0, 0, 0,
    0, 0, 0,
    0, 0, 0,
    0, 0, 0,

  % k = 2
    0, 0, 0,
    0, 0, 0,
    0, 0, 0,
    0, 0, 0,
    0, 0, 0,
    0, 0, 0,
    0, 0, 0,
    0, 0, 0,
    0, 0, 0,
    0, 0, 0
]);
d_nfa = array3d(1..2, 1..10, 1..3, [
  % k = 1
    {1, 2}, {1}, {1},
    {}, {3}, {},
    {4}, {}, {},
    {5}, {5}, {5},
    {6}, {6}, {6},
    {7}, {7}, {7},
    {8}, {8}, {8},
    {9}, {9}, {9},
    {10}, {10}, {10},
    {}, {}, {},

  % k = 2
    {1}, {2}, {1},
    {2}, {3}, {2},
    {3}, {4}, {3},
    {4}, {5}, {4},
    {5}, {6}, {5},
    {6}, {7}, {6},
    {7}, {8}, {7},
    {8}, {9}, {8},
    {9}, {}, {9},
    {}, {}, {}
]);
